sat
(
  (define-fun C2_VM2 () Int
    0)
  (define-fun PriceProv6 () Int
    210)
  (define-fun C1_VM3 () Int
    0)
  (define-fun C2_VM4 () Int
    0)
  (define-fun C5_VM1 () Int
    1)
  (define-fun ProcProv4 () Int
    64)
  (define-fun C2_VM3 () Int
    0)
  (define-fun StorageProv5 () Int
    2000)
  (define-fun C1_VM2 () Int
    1)
  (define-fun PriceProv3 () Int
    532)
  (define-fun StorageProv3 () Int
    2000)
  (define-fun StorageProv4 () Int
    1000)
  (define-fun C3_VM6 () Int
    0)
  (define-fun C5_VM3 () Int
    0)
  (define-fun PriceProv1 () Int
    460)
  (define-fun StorageProv6 () Int
    2000)
  (define-fun C5_VM6 () Int
    1)
  (define-fun MemProv1 () Int
    15000)
  (define-fun MemProv3 () Int
    30000)
  (define-fun VM2Type () Int
    182)
  (define-fun PriceProv5 () Int
    210)
  (define-fun ProcProv5 () Int
    4)
  (define-fun VM4Type () Int
    0)
  (define-fun C3_VM1 () Int
    1)
  (define-fun StorageProv1 () Int
    2000)
  (define-fun ProcProv3 () Int
    8)
  (define-fun C2_VM6 () Int
    1)
  (define-fun C3_VM5 () Int
    0)
  (define-fun ProcProv2 () Int
    4)
  (define-fun C3_VM2 () Int
    0)
  (define-fun VM3Type () Int
    134)
  (define-fun MemProv2 () Int
    7500)
  (define-fun C5_VM5 () Int
    1)
  (define-fun C2_VM1 () Int
    0)
  (define-fun VM6Type () Int
    182)
  (define-fun C1_VM6 () Int
    0)
  (define-fun MemProv4 () Int
    976000)
  (define-fun MemProv6 () Int
    7500)
  (define-fun VM1Type () Int
    136)
  (define-fun C4_VM4 () Int
    0)
  (define-fun C4_VM1 () Int
    0)
  (define-fun C4_VM6 () Int
    0)
  (define-fun ProcProv1 () Int
    8)
  (define-fun MemProv5 () Int
    7500)
  (define-fun C2_VM5 () Int
    1)
  (define-fun C4_VM3 () Int
    1)
  (define-fun C4_VM5 () Int
    0)
  (define-fun C1_VM5 () Int
    0)
  (define-fun PriceProv4 () Int
    0)
  (define-fun C1_VM4 () Int
    0)
  (define-fun C3_VM3 () Int
    0)
  (define-fun StorageProv2 () Int
    2000)
  (define-fun VM5Type () Int
    182)
  (define-fun C4_VM2 () Int
    0)
  (define-fun C5_VM4 () Int
    0)
  (define-fun C3_VM4 () Int
    0)
  (define-fun ProcProv6 () Int
    4)
  (define-fun C5_VM2 () Int
    0)
  (define-fun PriceProv2 () Int
    210)
  (define-fun C1_VM1 () Int
    0)
)
(objectives
 ( 16)
 ((+ 0 PriceProv1 PriceProv2 PriceProv3 PriceProv4 PriceProv5 PriceProv6) 1622)
)
(:added-eqs                   49553
 :arith-eq-adapter            62590
 :arith-bound-propagations-lp 370
 :arith-conflicts             21
 :arith-diseq                 60793
 :arith-fixed-eqs             529
 :arith-lower                 71755
 :arith-make-feasible         41779
 :arith-max-columns           350
 :arith-max-rows              20
 :arith-upper                 56162
 :binary-propagations         72736
 :bv-bit2core                 75
 :bv-dynamic-diseqs           15927
 :bv->core-eq                 908
 :conflicts                   1544
 :decisions                   59367
 :del-clause                  28231
 :final-checks                33
 :max-memory                  61.48
 :maxsat-cores                3
 :memory                      60.36
 :minimized-lits              364
 :mk-bool-var                 124434
 :mk-clause                   29347
 :mk-clause-binary            6611
 :num-allocs                  566854086
 :num-checks                  36
 :pb-conflicts                11
 :pb-predicates               18
 :pb-propagations             209
 :pb-resolves                 11
 :propagations                98879
 :restarts                    9
 :rlimit-count                3562704
 :solve-eqs-elim-vars         1
 :solve-eqs-steps             10
 :time                        0.50
 :total-time                  0.51)
